Results/Experiment 1 Results/New Benchmark/RES_20/output_p1_0.00_p2_0.00_n_20_13.txt
solutions: 72 nodes: 130  modelTime: 124  solveTime: 26  totalTime: 151  modelSize: 7357  readTime: 1 matchingSize: 10
